sat
(:max-memory          18.43
 :memory              18.33
 :nlsat-arith-var     2
 :nlsat-atoms         11
 :nlsat-bool-var      3
 :nlsat-clauses       7
 :nlsat-conflicts     3
 :nlsat-propagations  21
 :nlsat-stages        6
 :num-allocs          50991
 :rlimit-count        1602
 :solve-eqs-elim-vars 1
 :solve-eqs-steps     6
 :time                0.00
 :total-time          0.01)
